p cnf 963 2472
51 -2 -1 0
-51 2 0
-51 1 0
52 -51 -696 0
-52 51 0
-52 696 0
53 -697 -698 0
-53 697 0
-53 698 0
54 -53 -6 0
-54 53 0
-54 6 0
55 -699 -700 0
-55 699 0
-55 700 0
56 -701 -7 0
-56 701 0
-56 7 0
57 -56 -702 0
-57 56 0
-57 702 0
58 -703 -55 0
-58 703 0
-58 55 0
59 -11 -704 0
-59 11 0
-59 704 0
60 -59 -705 0
-60 59 0
-60 705 0
61 -706 -58 0
-61 706 0
-61 58 0
62 -707 -10 0
-62 707 0
-62 10 0
63 -62 -708 0
-63 62 0
-63 708 0
64 -709 -61 0
-64 709 0
-64 61 0
65 -710 -7 0
-65 710 0
-65 7 0
66 -65 -711 0
-66 65 0
-66 711 0
67 -712 -64 0
-67 712 0
-67 64 0
68 -713 -714 0
-68 713 0
-68 714 0
69 -68 -18 0
-69 68 0
-69 18 0
70 -715 -67 0
-70 715 0
-70 67 0
71 -716 -713 0
-71 716 0
-71 713 0
72 -71 -20 0
-72 71 0
-72 20 0
73 -717 -70 0
-73 717 0
-73 70 0
74 -718 -710 0
-74 718 0
-74 710 0
75 -74 -719 0
-75 74 0
-75 719 0
76 -720 -73 0
-76 720 0
-76 73 0
77 -24 -721 0
-77 24 0
-77 721 0
78 -77 -722 0
-78 77 0
-78 722 0
79 -723 -76 0
-79 723 0
-79 76 0
80 -27 -26 0
-80 27 0
-80 26 0
81 -80 -724 0
-81 80 0
-81 724 0
82 -725 -79 0
-82 725 0
-82 79 0
83 -721 -704 0
-83 721 0
-83 704 0
84 -83 -29 0
-84 83 0
-84 29 0
85 -726 -82 0
-85 726 0
-85 82 0
86 -727 -728 0
-86 727 0
-86 728 0
87 -86 -31 0
-87 86 0
-87 31 0
88 -729 -85 0
-88 729 0
-88 85 0
89 -730 -705 0
-89 730 0
-89 705 0
90 -89 -724 0
-90 89 0
-90 724 0
91 -731 -88 0
-91 731 0
-91 88 0
92 -34 -33 0
-92 34 0
-92 33 0
93 -92 -35 0
-93 92 0
-93 35 0
94 -732 -91 0
-94 732 0
-94 91 0
95 -733 -18 0
-95 733 0
-95 18 0
96 -95 -30 0
-96 95 0
-96 30 0
97 -734 -94 0
-97 734 0
-97 94 0
98 -36 -11 0
-98 36 0
-98 11 0
99 -98 -37 0
-99 98 0
-99 37 0
100 -735 -97 0
-100 735 0
-100 97 0
101 -38 -17 0
-101 38 0
-101 17 0
102 -101 -736 0
-102 101 0
-102 736 0
103 -737 -100 0
-103 737 0
-103 100 0
104 -738 -739 0
-104 738 0
-104 739 0
105 -104 -39 0
-105 104 0
-105 39 0
106 -740 -103 0
-106 740 0
-106 103 0
107 -730 -736 0
-107 730 0
-107 736 0
108 -107 -6 0
-108 107 0
-108 6 0
109 -741 -106 0
-109 741 0
-109 106 0
110 -742 -40 0
-110 742 0
-110 40 0
111 -110 -37 0
-111 110 0
-111 37 0
112 -743 -109 0
-112 743 0
-112 109 0
113 -744 -745 0
-113 744 0
-113 745 0
114 -113 -12 0
-114 113 0
-114 12 0
115 -746 -112 0
-115 746 0
-115 112 0
116 -721 -8 0
-116 721 0
-116 8 0
117 -116 -742 0
-117 116 0
-117 742 0
118 -747 -115 0
-118 747 0
-118 115 0
119 -748 -36 0
-119 748 0
-119 36 0
120 -119 -37 0
-120 119 0
-120 37 0
121 -749 -118 0
-121 749 0
-121 118 0
122 -750 -708 0
-122 750 0
-122 708 0
123 -122 -12 0
-123 122 0
-123 12 0
124 -751 -121 0
-124 751 0
-124 121 0
125 -26 -13 0
-125 26 0
-125 13 0
126 -125 -752 0
-126 125 0
-126 752 0
127 -753 -124 0
-127 753 0
-127 124 0
128 -35 -739 0
-128 35 0
-128 739 0
129 -128 -6 0
-129 128 0
-129 6 0
130 -754 -127 0
-130 754 0
-130 127 0
131 -730 -23 0
-131 730 0
-131 23 0
132 -131 -44 0
-132 131 0
-132 44 0
133 -755 -130 0
-133 755 0
-133 130 0
134 -713 -15 0
-134 713 0
-134 15 0
135 -134 -25 0
-135 134 0
-135 25 0
136 -756 -133 0
-136 756 0
-136 133 0
137 -757 -752 0
-137 757 0
-137 752 0
138 -137 -5 0
-138 137 0
-138 5 0
139 -758 -136 0
-139 758 0
-139 136 0
140 -35 -711 0
-140 35 0
-140 711 0
141 -140 -697 0
-141 140 0
-141 697 0
142 -759 -139 0
-142 759 0
-142 139 0
143 -36 -26 0
-143 36 0
-143 26 0
144 -143 -697 0
-144 143 0
-144 697 0
145 -760 -142 0
-145 760 0
-145 142 0
146 -18 -739 0
-146 18 0
-146 739 0
147 -146 -25 0
-147 146 0
-147 25 0
148 -761 -145 0
-148 761 0
-148 145 0
149 -762 -696 0
-149 762 0
-149 696 0
150 -149 -14 0
-150 149 0
-150 14 0
151 -763 -148 0
-151 763 0
-151 148 0
152 -44 -702 0
-152 44 0
-152 702 0
153 -152 -25 0
-153 152 0
-153 25 0
154 -764 -151 0
-154 764 0
-154 151 0
155 -752 -739 0
-155 752 0
-155 739 0
156 -155 -46 0
-156 155 0
-156 46 0
157 -765 -154 0
-157 765 0
-157 154 0
158 -752 -713 0
-158 752 0
-158 713 0
159 -158 -3 0
-159 158 0
-159 3 0
160 -766 -157 0
-160 766 0
-160 157 0
161 -33 -23 0
-161 33 0
-161 23 0
162 -161 -707 0
-162 161 0
-162 707 0
163 -767 -160 0
-163 767 0
-163 160 0
164 -42 -15 0
-164 42 0
-164 15 0
165 -164 -24 0
-165 164 0
-165 24 0
166 -768 -163 0
-166 768 0
-166 163 0
167 -738 -32 0
-167 738 0
-167 32 0
168 -167 -719 0
-168 167 0
-168 719 0
169 -769 -166 0
-169 769 0
-169 166 0
170 -36 -17 0
-170 36 0
-170 17 0
171 -170 -6 0
-171 170 0
-171 6 0
172 -770 -169 0
-172 770 0
-172 169 0
173 -11 -7 0
-173 11 0
-173 7 0
174 -173 -19 0
-174 173 0
-174 19 0
175 -771 -172 0
-175 771 0
-175 172 0
176 -20 -8 0
-176 20 0
-176 8 0
177 -176 -772 0
-177 176 0
-177 772 0
178 -773 -175 0
-178 773 0
-178 175 0
179 -43 -774 0
-179 43 0
-179 774 0
180 -179 -48 0
-180 179 0
-180 48 0
181 -775 -178 0
-181 775 0
-181 178 0
182 -776 -2 0
-182 776 0
-182 2 0
183 -182 -27 0
-183 182 0
-183 27 0
184 -777 -181 0
-184 777 0
-184 181 0
185 -40 -23 0
-185 40 0
-185 23 0
186 -185 -47 0
-186 185 0
-186 47 0
187 -778 -184 0
-187 778 0
-187 184 0
188 -29 -721 0
-188 29 0
-188 721 0
189 -188 -48 0
-189 188 0
-189 48 0
190 -779 -187 0
-190 779 0
-190 187 0
191 -44 -39 0
-191 44 0
-191 39 0
192 -191 -727 0
-192 191 0
-192 727 0
193 -780 -190 0
-193 780 0
-193 190 0
194 -8 -7 0
-194 8 0
-194 7 0
195 -194 -736 0
-195 194 0
-195 736 0
196 -781 -193 0
-196 781 0
-196 193 0
197 -37 -782 0
-197 37 0
-197 782 0
198 -197 -702 0
-198 197 0
-198 702 0
199 -783 -196 0
-199 783 0
-199 196 0
200 -34 -714 0
-200 34 0
-200 714 0
201 -200 -784 0
-201 200 0
-201 784 0
202 -785 -199 0
-202 785 0
-202 199 0
203 -8 -696 0
-203 8 0
-203 696 0
204 -203 -724 0
-204 203 0
-204 724 0
205 -786 -202 0
-205 786 0
-205 202 0
206 -710 -1 0
-206 710 0
-206 1 0
207 -206 -772 0
-207 206 0
-207 772 0
208 -787 -205 0
-208 787 0
-208 205 0
209 -730 -31 0
-209 730 0
-209 31 0
210 -209 -724 0
-210 209 0
-210 724 0
211 -788 -208 0
-211 788 0
-211 208 0
212 -721 -789 0
-212 721 0
-212 789 0
213 -212 -736 0
-213 212 0
-213 736 0
214 -790 -211 0
-214 790 0
-214 211 0
215 -791 -792 0
-215 791 0
-215 792 0
216 -215 -750 0
-216 215 0
-216 750 0
217 -793 -214 0
-217 793 0
-217 214 0
218 -8 -1 0
-218 8 0
-218 1 0
219 -218 -698 0
-219 218 0
-219 698 0
220 -794 -217 0
-220 794 0
-220 217 0
221 -44 -10 0
-221 44 0
-221 10 0
222 -221 -24 0
-222 221 0
-222 24 0
223 -795 -220 0
-223 795 0
-223 220 0
224 -796 -20 0
-224 796 0
-224 20 0
225 -224 -797 0
-225 224 0
-225 797 0
226 -798 -223 0
-226 798 0
-226 223 0
227 -44 -42 0
-227 44 0
-227 42 0
228 -227 -17 0
-228 227 0
-228 17 0
229 -799 -226 0
-229 799 0
-229 226 0
230 -32 -10 0
-230 32 0
-230 10 0
231 -230 -17 0
-231 230 0
-231 17 0
232 -800 -229 0
-232 800 0
-232 229 0
233 -792 -789 0
-233 792 0
-233 789 0
234 -233 -797 0
-234 233 0
-234 797 0
235 -801 -232 0
-235 801 0
-235 232 0
236 -792 -6 0
-236 792 0
-236 6 0
237 -236 -31 0
-237 236 0
-237 31 0
238 -802 -235 0
-238 802 0
-238 235 0
239 -784 -738 0
-239 784 0
-239 738 0
240 -239 -718 0
-240 239 0
-240 718 0
241 -803 -238 0
-241 803 0
-241 238 0
242 -752 -792 0
-242 752 0
-242 792 0
243 -242 -804 0
-243 242 0
-243 804 0
244 -805 -241 0
-244 805 0
-244 241 0
245 -791 -806 0
-245 791 0
-245 806 0
246 -245 -697 0
-246 245 0
-246 697 0
247 -807 -244 0
-247 807 0
-247 244 0
248 -738 -17 0
-248 738 0
-248 17 0
249 -248 -48 0
-249 248 0
-249 48 0
250 -808 -247 0
-250 808 0
-250 247 0
251 -42 -789 0
-251 42 0
-251 789 0
252 -251 -9 0
-252 251 0
-252 9 0
253 -809 -250 0
-253 809 0
-253 250 0
254 -42 -697 0
-254 42 0
-254 697 0
255 -254 -719 0
-255 254 0
-255 719 0
256 -810 -253 0
-256 810 0
-256 253 0
257 -797 -10 0
-257 797 0
-257 10 0
258 -257 -25 0
-258 257 0
-258 25 0
259 -811 -256 0
-259 811 0
-259 256 0
260 -776 -806 0
-260 776 0
-260 806 0
261 -260 -31 0
-261 260 0
-261 31 0
262 -812 -259 0
-262 812 0
-262 259 0
263 -806 -29 0
-263 806 0
-263 29 0
264 -263 -24 0
-264 263 0
-264 24 0
265 -813 -262 0
-265 813 0
-265 262 0
266 -47 -814 0
-266 47 0
-266 814 0
267 -266 -31 0
-267 266 0
-267 31 0
268 -815 -265 0
-268 815 0
-268 265 0
269 -36 -739 0
-269 36 0
-269 739 0
270 -269 -3 0
-270 269 0
-270 3 0
271 -816 -268 0
-271 816 0
-271 268 0
272 -27 -745 0
-272 27 0
-272 745 0
273 -272 -728 0
-273 272 0
-273 728 0
274 -817 -271 0
-274 817 0
-274 271 0
275 -30 -11 0
-275 30 0
-275 11 0
276 -275 -47 0
-276 275 0
-276 47 0
277 -818 -274 0
-277 818 0
-277 274 0
278 -38 -733 0
-278 38 0
-278 733 0
279 -278 -819 0
-279 278 0
-279 819 0
280 -820 -277 0
-280 820 0
-280 277 0
281 -15 -745 0
-281 15 0
-281 745 0
282 -281 -41 0
-282 281 0
-282 41 0
283 -821 -280 0
-283 821 0
-283 280 0
284 -35 -814 0
-284 35 0
-284 814 0
285 -284 -697 0
-285 284 0
-285 697 0
286 -822 -283 0
-286 822 0
-286 283 0
287 -29 -10 0
-287 29 0
-287 10 0
288 -287 -41 0
-288 287 0
-288 41 0
289 -823 -286 0
-289 823 0
-289 286 0
290 -727 -733 0
-290 727 0
-290 733 0
291 -290 -22 0
-291 290 0
-291 22 0
292 -824 -289 0
-292 824 0
-292 289 0
293 -39 -24 0
-293 39 0
-293 24 0
294 -293 -757 0
-294 293 0
-294 757 0
295 -825 -292 0
-295 825 0
-295 292 0
296 -698 -739 0
-296 698 0
-296 739 0
297 -296 -750 0
-297 296 0
-297 750 0
298 -826 -295 0
-298 826 0
-298 295 0
299 -23 -10 0
-299 23 0
-299 10 0
300 -299 -27 0
-300 299 0
-300 27 0
301 -827 -298 0
-301 827 0
-301 298 0
302 -36 -33 0
-302 36 0
-302 33 0
303 -302 -752 0
-303 302 0
-303 752 0
304 -828 -301 0
-304 828 0
-304 301 0
305 -37 -774 0
-305 37 0
-305 774 0
306 -305 -727 0
-306 305 0
-306 727 0
307 -829 -304 0
-307 829 0
-307 304 0
308 -750 -707 0
-308 750 0
-308 707 0
309 -308 -28 0
-309 308 0
-309 28 0
310 -830 -307 0
-310 830 0
-310 307 0
311 -710 -4 0
-311 710 0
-311 4 0
312 -311 -804 0
-312 311 0
-312 804 0
313 -831 -310 0
-313 831 0
-313 310 0
314 -774 -698 0
-314 774 0
-314 698 0
315 -314 -18 0
-315 314 0
-315 18 0
316 -832 -313 0
-316 832 0
-316 313 0
317 -29 -16 0
-317 29 0
-317 16 0
318 -317 -833 0
-318 317 0
-318 833 0
319 -834 -316 0
-319 834 0
-319 316 0
320 -17 -710 0
-320 17 0
-320 710 0
321 -320 -702 0
-321 320 0
-321 702 0
322 -835 -319 0
-322 835 0
-322 319 0
323 -14 -11 0
-323 14 0
-323 11 0
324 -323 -702 0
-324 323 0
-324 702 0
325 -836 -322 0
-325 836 0
-325 322 0
326 -711 -701 0
-326 711 0
-326 701 0
327 -326 -696 0
-327 326 0
-327 696 0
328 -837 -325 0
-328 837 0
-328 325 0
329 -40 -27 0
-329 40 0
-329 27 0
330 -329 -718 0
-330 329 0
-330 718 0
331 -838 -328 0
-331 838 0
-331 328 0
332 -37 -11 0
-332 37 0
-332 11 0
333 -332 -728 0
-333 332 0
-333 728 0
334 -839 -331 0
-334 839 0
-334 331 0
335 -17 -708 0
-335 17 0
-335 708 0
336 -335 -5 0
-336 335 0
-336 5 0
337 -840 -334 0
-337 840 0
-337 334 0
338 -22 -1 0
-338 22 0
-338 1 0
339 -338 -841 0
-339 338 0
-339 841 0
340 -842 -337 0
-340 842 0
-340 337 0
341 -721 -13 0
-341 721 0
-341 13 0
342 -341 -19 0
-342 341 0
-342 19 0
343 -843 -340 0
-343 843 0
-343 340 0
344 -742 -4 0
-344 742 0
-344 4 0
345 -344 -772 0
-345 344 0
-345 772 0
346 -844 -343 0
-346 844 0
-346 343 0
347 -33 -711 0
-347 33 0
-347 711 0
348 -347 -719 0
-348 347 0
-348 719 0
349 -845 -346 0
-349 845 0
-349 346 0
350 -21 -714 0
-350 21 0
-350 714 0
351 -350 -20 0
-351 350 0
-351 20 0
352 -846 -349 0
-352 846 0
-352 349 0
353 -742 -23 0
-353 742 0
-353 23 0
354 -353 -792 0
-354 353 0
-354 792 0
355 -847 -352 0
-355 847 0
-355 352 0
356 -44 -716 0
-356 44 0
-356 716 0
357 -356 -37 0
-357 356 0
-357 37 0
358 -848 -355 0
-358 848 0
-358 355 0
359 -748 -736 0
-359 748 0
-359 736 0
360 -359 -752 0
-360 359 0
-360 752 0
361 -849 -358 0
-361 849 0
-361 358 0
362 -272 -804 0
-362 272 0
-362 804 0
363 -850 -361 0
-363 850 0
-363 361 0
364 -38 -707 0
-364 38 0
-364 707 0
365 -364 -21 0
-365 364 0
-365 21 0
366 -851 -363 0
-366 851 0
-366 363 0
367 -738 -714 0
-367 738 0
-367 714 0
368 -367 -31 0
-368 367 0
-368 31 0
369 -852 -366 0
-369 852 0
-369 366 0
370 -41 -14 0
-370 41 0
-370 14 0
371 -370 -9 0
-371 370 0
-371 9 0
372 -853 -369 0
-372 853 0
-372 369 0
373 -29 -739 0
-373 29 0
-373 739 0
374 -373 -724 0
-374 373 0
-374 724 0
375 -854 -372 0
-375 854 0
-375 372 0
376 -713 -10 0
-376 713 0
-376 10 0
377 -376 -757 0
-377 376 0
-377 757 0
378 -855 -375 0
-378 855 0
-378 375 0
379 -11 -739 0
-379 11 0
-379 739 0
380 -379 -724 0
-380 379 0
-380 724 0
381 -856 -378 0
-381 856 0
-381 378 0
382 -705 -8 0
-382 705 0
-382 8 0
383 -382 -722 0
-383 382 0
-383 722 0
384 -857 -381 0
-384 857 0
-384 381 0
385 -757 -1 0
-385 757 0
-385 1 0
386 -385 -797 0
-386 385 0
-386 797 0
387 -858 -384 0
-387 858 0
-387 384 0
388 -34 -744 0
-388 34 0
-388 744 0
389 -388 -757 0
-389 388 0
-389 757 0
390 -859 -387 0
-390 859 0
-390 387 0
391 -833 -792 0
-391 833 0
-391 792 0
392 -391 -22 0
-392 391 0
-392 22 0
393 -860 -390 0
-393 860 0
-393 390 0
394 -782 -27 0
-394 782 0
-394 27 0
395 -394 -35 0
-395 394 0
-395 35 0
396 -861 -393 0
-396 861 0
-396 393 0
397 -49 -730 0
-397 49 0
-397 730 0
398 -397 -46 0
-398 397 0
-398 46 0
399 -862 -396 0
-399 862 0
-399 396 0
400 -33 -736 0
-400 33 0
-400 736 0
401 -400 -50 0
-401 400 0
-401 50 0
402 -863 -399 0
-402 863 0
-402 399 0
403 -29 -789 0
-403 29 0
-403 789 0
404 -403 -39 0
-404 403 0
-404 39 0
405 -864 -402 0
-405 864 0
-405 402 0
406 -23 -13 0
-406 23 0
-406 13 0
407 -406 -49 0
-407 406 0
-407 49 0
408 -865 -405 0
-408 865 0
-408 405 0
409 -16 -8 0
-409 16 0
-409 8 0
410 -409 -819 0
-410 409 0
-410 819 0
411 -866 -408 0
-411 866 0
-411 408 0
412 -32 -736 0
-412 32 0
-412 736 0
413 -412 -727 0
-413 412 0
-413 727 0
414 -867 -411 0
-414 867 0
-414 411 0
415 -43 -728 0
-415 43 0
-415 728 0
416 -415 -705 0
-416 415 0
-416 705 0
417 -868 -414 0
-417 868 0
-417 414 0
418 -38 -37 0
-418 38 0
-418 37 0
419 -418 -697 0
-419 418 0
-419 697 0
420 -869 -417 0
-420 869 0
-420 417 0
421 -738 -3 0
-421 738 0
-421 3 0
422 -421 -841 0
-422 421 0
-422 841 0
423 -870 -420 0
-423 870 0
-423 420 0
424 -772 -32 0
-424 772 0
-424 32 0
425 -424 -702 0
-425 424 0
-425 702 0
426 -871 -423 0
-426 871 0
-426 423 0
427 -730 -733 0
-427 730 0
-427 733 0
428 -427 -6 0
-428 427 0
-428 6 0
429 -872 -426 0
-429 872 0
-429 426 0
430 -46 -710 0
-430 46 0
-430 710 0
431 -430 -31 0
-431 430 0
-431 31 0
432 -873 -429 0
-432 873 0
-432 429 0
433 -796 -46 0
-433 796 0
-433 46 0
434 -433 -25 0
-434 433 0
-434 25 0
435 -874 -432 0
-435 874 0
-435 432 0
436 -8 -739 0
-436 8 0
-436 739 0
437 -436 -44 0
-437 436 0
-437 44 0
438 -875 -435 0
-438 875 0
-438 435 0
439 -48 -28 0
-439 48 0
-439 28 0
440 -439 -9 0
-440 439 0
-440 9 0
441 -876 -438 0
-441 876 0
-441 438 0
442 -13 -1 0
-442 13 0
-442 1 0
443 -442 -772 0
-443 442 0
-443 772 0
444 -877 -441 0
-444 877 0
-444 441 0
445 -49 -36 0
-445 49 0
-445 36 0
446 -445 -757 0
-446 445 0
-446 757 0
447 -878 -444 0
-447 878 0
-447 444 0
448 -26 -739 0
-448 26 0
-448 739 0
449 -448 -774 0
-449 448 0
-449 774 0
450 -879 -447 0
-450 879 0
-450 447 0
451 -806 -745 0
-451 806 0
-451 745 0
452 -451 -750 0
-452 451 0
-452 750 0
453 -880 -450 0
-453 880 0
-453 450 0
454 -733 -716 0
-454 733 0
-454 716 0
455 -454 -5 0
-455 454 0
-455 5 0
456 -881 -453 0
-456 881 0
-456 453 0
457 -83 -696 0
-457 83 0
-457 696 0
458 -882 -456 0
-458 882 0
-458 456 0
459 -772 -33 0
-459 772 0
-459 33 0
460 -459 -819 0
-460 459 0
-460 819 0
461 -883 -458 0
-461 883 0
-461 458 0
462 -44 -721 0
-462 44 0
-462 721 0
463 -462 -713 0
-463 462 0
-463 713 0
464 -884 -461 0
-464 884 0
-464 461 0
465 -744 -18 0
-465 744 0
-465 18 0
466 -465 -49 0
-466 465 0
-466 49 0
467 -885 -464 0
-467 885 0
-467 464 0
468 -721 -16 0
-468 721 0
-468 16 0
469 -468 -13 0
-469 468 0
-469 13 0
470 -886 -467 0
-470 886 0
-470 467 0
471 -776 -721 0
-471 776 0
-471 721 0
472 -471 -37 0
-472 471 0
-472 37 0
473 -887 -470 0
-473 887 0
-473 470 0
474 -454 -24 0
-474 454 0
-474 24 0
475 -888 -473 0
-475 888 0
-475 473 0
476 -42 -13 0
-476 42 0
-476 13 0
477 -476 -30 0
-477 476 0
-477 30 0
478 -889 -475 0
-478 889 0
-478 475 0
479 -49 -762 0
-479 49 0
-479 762 0
480 -479 -697 0
-480 479 0
-480 697 0
481 -890 -478 0
-481 890 0
-481 478 0
482 -711 -789 0
-482 711 0
-482 789 0
483 -482 -772 0
-483 482 0
-483 772 0
484 -891 -481 0
-484 891 0
-484 481 0
485 -806 -710 0
-485 806 0
-485 710 0
486 -485 -727 0
-486 485 0
-486 727 0
487 -892 -484 0
-487 892 0
-487 484 0
488 -39 -708 0
-488 39 0
-488 708 0
489 -488 -46 0
-489 488 0
-489 46 0
490 -893 -487 0
-490 893 0
-490 487 0
491 -40 -711 0
-491 40 0
-491 711 0
492 -491 -713 0
-492 491 0
-492 713 0
493 -894 -490 0
-493 894 0
-493 490 0
494 -281 -3 0
-494 281 0
-494 3 0
495 -895 -493 0
-495 895 0
-495 493 0
496 -45 -707 0
-496 45 0
-496 707 0
497 -496 -772 0
-497 496 0
-497 772 0
498 -896 -495 0
-498 896 0
-498 495 0
499 -744 -11 0
-499 744 0
-499 11 0
500 -499 -20 0
-500 499 0
-500 20 0
501 -897 -498 0
-501 897 0
-501 498 0
502 -721 -701 0
-502 721 0
-502 701 0
503 -502 -748 0
-503 502 0
-503 748 0
504 -898 -501 0
-504 898 0
-504 501 0
505 -37 -30 0
-505 37 0
-505 30 0
506 -505 -20 0
-506 505 0
-506 20 0
507 -899 -504 0
-507 899 0
-507 504 0
508 -42 -8 0
-508 42 0
-508 8 0
509 -508 -750 0
-509 508 0
-509 750 0
510 -900 -507 0
-510 900 0
-510 507 0
511 -21 -15 0
-511 21 0
-511 15 0
512 -511 -50 0
-512 511 0
-512 50 0
513 -901 -510 0
-513 901 0
-513 510 0
514 -744 -16 0
-514 744 0
-514 16 0
515 -514 -742 0
-515 514 0
-515 742 0
516 -902 -513 0
-516 902 0
-516 513 0
517 -33 -730 0
-517 33 0
-517 730 0
518 -517 -5 0
-518 517 0
-518 5 0
519 -903 -516 0
-519 903 0
-519 516 0
520 -738 -762 0
-520 738 0
-520 762 0
521 -520 -797 0
-521 520 0
-521 797 0
522 -904 -519 0
-522 904 0
-522 519 0
523 -748 -15 0
-523 748 0
-523 15 0
524 -523 -841 0
-524 523 0
-524 841 0
525 -905 -522 0
-525 905 0
-525 522 0
526 -748 -26 0
-526 748 0
-526 26 0
527 -526 -28 0
-527 526 0
-527 28 0
528 -906 -525 0
-528 906 0
-528 525 0
529 -37 -32 0
-529 37 0
-529 32 0
530 -529 -43 0
-530 529 0
-530 43 0
531 -907 -528 0
-531 907 0
-531 528 0
532 -804 -707 0
-532 804 0
-532 707 0
533 -532 -705 0
-533 532 0
-533 705 0
534 -908 -531 0
-534 908 0
-534 531 0
535 -24 -23 0
-535 24 0
-535 23 0
536 -535 -25 0
-536 535 0
-536 25 0
537 -909 -534 0
-537 909 0
-537 534 0
538 -46 -4 0
-538 46 0
-538 4 0
539 -538 -12 0
-539 538 0
-539 12 0
540 -910 -537 0
-540 910 0
-540 537 0
541 -41 -15 0
-541 41 0
-541 15 0
542 -541 -698 0
-542 541 0
-542 698 0
543 -911 -540 0
-543 911 0
-543 540 0
544 -11 -8 0
-544 11 0
-544 8 0
545 -544 -697 0
-545 544 0
-545 697 0
546 -912 -543 0
-546 912 0
-546 543 0
547 -796 -745 0
-547 796 0
-547 745 0
548 -547 -20 0
-548 547 0
-548 20 0
549 -913 -546 0
-549 913 0
-549 546 0
550 -29 -736 0
-550 29 0
-550 736 0
551 -550 -797 0
-551 550 0
-551 797 0
552 -914 -549 0
-552 914 0
-552 549 0
553 -19 -711 0
-553 19 0
-553 711 0
554 -553 -30 0
-554 553 0
-554 30 0
555 -915 -552 0
-555 915 0
-555 552 0
556 -37 -34 0
-556 37 0
-556 34 0
557 -556 -727 0
-557 556 0
-557 727 0
558 -916 -555 0
-558 916 0
-558 555 0
559 -24 -2 0
-559 24 0
-559 2 0
560 -559 -727 0
-560 559 0
-560 727 0
561 -917 -558 0
-561 917 0
-561 558 0
562 -762 -745 0
-562 762 0
-562 745 0
563 -562 -30 0
-563 562 0
-563 30 0
564 -918 -561 0
-564 918 0
-564 561 0
565 -29 -716 0
-565 29 0
-565 716 0
566 -565 -696 0
-566 565 0
-566 696 0
567 -919 -564 0
-567 919 0
-567 564 0
568 -50 -15 0
-568 50 0
-568 15 0
569 -568 -841 0
-569 568 0
-569 841 0
570 -920 -567 0
-570 920 0
-570 567 0
571 -16 -7 0
-571 16 0
-571 7 0
572 -571 -718 0
-572 571 0
-572 718 0
573 -921 -570 0
-573 921 0
-573 570 0
574 -804 -733 0
-574 804 0
-574 733 0
575 -574 -12 0
-575 574 0
-575 12 0
576 -922 -573 0
-576 922 0
-576 573 0
577 -757 -29 0
-577 757 0
-577 29 0
578 -577 -14 0
-578 577 0
-578 14 0
579 -923 -576 0
-579 923 0
-579 576 0
580 -750 -13 0
-580 750 0
-580 13 0
581 -580 -28 0
-581 580 0
-581 28 0
582 -924 -579 0
-582 924 0
-582 579 0
583 -782 -29 0
-583 782 0
-583 29 0
584 -583 -24 0
-584 583 0
-584 24 0
585 -925 -582 0
-585 925 0
-585 582 0
586 -40 -32 0
-586 40 0
-586 32 0
587 -586 -31 0
-587 586 0
-587 31 0
588 -926 -585 0
-588 926 0
-588 585 0
589 -776 -730 0
-589 776 0
-589 730 0
590 -589 -30 0
-590 589 0
-590 30 0
591 -927 -588 0
-591 927 0
-591 588 0
592 -15 -11 0
-592 15 0
-592 11 0
593 -592 -5 0
-593 592 0
-593 5 0
594 -928 -591 0
-594 928 0
-594 591 0
595 -40 -744 0
-595 40 0
-595 744 0
596 -595 -13 0
-596 595 0
-596 13 0
597 -929 -594 0
-597 929 0
-597 594 0
598 -32 -750 0
-598 32 0
-598 750 0
599 -598 -50 0
-599 598 0
-599 50 0
600 -930 -597 0
-600 930 0
-600 597 0
601 -391 -705 0
-601 391 0
-601 705 0
602 -931 -600 0
-602 931 0
-602 600 0
603 -40 -37 0
-603 40 0
-603 37 0
604 -603 -728 0
-604 603 0
-604 728 0
605 -932 -602 0
-605 932 0
-605 602 0
606 -37 -716 0
-606 37 0
-606 716 0
607 -606 -772 0
-607 606 0
-607 772 0
608 -933 -605 0
-608 933 0
-608 605 0
609 -39 -26 0
-609 39 0
-609 26 0
610 -609 -762 0
-610 609 0
-610 762 0
611 -934 -608 0
-611 934 0
-611 608 0
612 -556 -792 0
-612 556 0
-612 792 0
613 -935 -611 0
-613 935 0
-613 611 0
614 -19 -1 0
-614 19 0
-614 1 0
615 -614 -728 0
-615 614 0
-615 728 0
616 -936 -613 0
-616 936 0
-616 613 0
617 -750 -1 0
-617 750 0
-617 1 0
618 -617 -819 0
-618 617 0
-618 819 0
619 -937 -616 0
-619 937 0
-619 616 0
620 -38 -814 0
-620 38 0
-620 814 0
621 -620 -722 0
-621 620 0
-621 722 0
622 -938 -619 0
-622 938 0
-622 619 0
623 -16 -707 0
-623 16 0
-623 707 0
624 -623 -791 0
-624 623 0
-624 791 0
625 -939 -622 0
-625 939 0
-625 622 0
626 -748 -38 0
-626 748 0
-626 38 0
627 -626 -6 0
-627 626 0
-627 6 0
628 -940 -625 0
-628 940 0
-628 625 0
629 -40 -728 0
-629 40 0
-629 728 0
630 -629 -9 0
-630 629 0
-630 9 0
631 -941 -628 0
-631 941 0
-631 628 0
632 -27 -696 0
-632 27 0
-632 696 0
633 -632 -20 0
-633 632 0
-633 20 0
634 -942 -631 0
-634 942 0
-634 631 0
635 -16 -710 0
-635 16 0
-635 710 0
636 -635 -41 0
-636 635 0
-636 41 0
637 -943 -634 0
-637 943 0
-637 634 0
638 -50 -8 0
-638 50 0
-638 8 0
639 -638 -724 0
-639 638 0
-639 724 0
640 -944 -637 0
-640 944 0
-640 637 0
641 -776 -7 0
-641 776 0
-641 7 0
642 -641 -814 0
-642 641 0
-642 814 0
643 -945 -640 0
-643 945 0
-643 640 0
644 -47 -721 0
-644 47 0
-644 721 0
645 -644 -48 0
-645 644 0
-645 48 0
646 -946 -643 0
-646 946 0
-646 643 0
647 -143 -739 0
-647 143 0
-647 739 0
648 -947 -646 0
-648 947 0
-648 646 0
649 -173 -6 0
-649 173 0
-649 6 0
650 -948 -648 0
-650 948 0
-650 648 0
651 -792 -744 0
-651 792 0
-651 744 0
652 -651 -25 0
-652 651 0
-652 25 0
653 -949 -650 0
-653 949 0
-653 650 0
654 -44 -4 0
-654 44 0
-654 4 0
655 -654 -728 0
-655 654 0
-655 728 0
656 -950 -653 0
-656 950 0
-656 653 0
657 -841 -782 0
-657 841 0
-657 782 0
658 -657 -28 0
-658 657 0
-658 28 0
659 -951 -656 0
-659 951 0
-659 656 0
660 -8 -697 0
-660 8 0
-660 697 0
661 -660 -50 0
-661 660 0
-661 50 0
662 -952 -659 0
-662 952 0
-662 659 0
663 -736 -789 0
-663 736 0
-663 789 0
664 -663 -727 0
-664 663 0
-664 727 0
665 -953 -662 0
-665 953 0
-665 662 0
666 -29 -707 0
-666 29 0
-666 707 0
667 -666 -713 0
-667 666 0
-667 713 0
668 -954 -665 0
-668 954 0
-668 665 0
669 -34 -22 0
-669 34 0
-669 22 0
670 -669 -9 0
-670 669 0
-670 9 0
671 -955 -668 0
-671 955 0
-671 668 0
672 -22 -698 0
-672 22 0
-672 698 0
673 -672 -724 0
-673 672 0
-673 724 0
674 -956 -671 0
-674 956 0
-674 671 0
675 -29 -24 0
-675 29 0
-675 24 0
676 -675 -28 0
-676 675 0
-676 28 0
677 -957 -674 0
-677 957 0
-677 674 0
678 -704 -745 0
-678 704 0
-678 745 0
679 -678 -791 0
-679 678 0
-679 791 0
680 -958 -677 0
-680 958 0
-680 677 0
681 -49 -696 0
-681 49 0
-681 696 0
682 -681 -708 0
-682 681 0
-682 708 0
683 -959 -680 0
-683 959 0
-683 680 0
684 -40 -16 0
-684 40 0
-684 16 0
685 -684 -739 0
-685 684 0
-685 739 0
686 -960 -683 0
-686 960 0
-686 683 0
687 -49 -19 0
-687 49 0
-687 19 0
688 -687 -9 0
-688 687 0
-688 9 0
689 -961 -686 0
-689 961 0
-689 686 0
690 -19 -2 0
-690 19 0
-690 2 0
691 -690 -5 0
-691 690 0
-691 5 0
692 -962 -689 0
-692 962 0
-692 689 0
693 -41 -19 0
-693 41 0
-693 19 0
694 -693 -697 0
-694 693 0
-694 697 0
695 -963 -692 0
-695 963 0
-695 692 0
-696 -3 0
696 3 0
-697 -5 0
697 5 0
-698 -4 0
698 4 0
-699 -54 0
699 54 0
-700 -52 0
700 52 0
-701 -8 0
701 8 0
-702 -9 0
702 9 0
-703 -57 0
703 57 0
-704 -10 0
704 10 0
-705 -12 0
705 12 0
-706 -60 0
706 60 0
-707 -13 0
707 13 0
-708 -14 0
708 14 0
-709 -63 0
709 63 0
-710 -15 0
710 15 0
-711 -11 0
711 11 0
-712 -66 0
712 66 0
-713 -17 0
713 17 0
-714 -16 0
714 16 0
-715 -69 0
715 69 0
-716 -19 0
716 19 0
-717 -72 0
717 72 0
-718 -21 0
718 21 0
-719 -22 0
719 22 0
-720 -75 0
720 75 0
-721 -23 0
721 23 0
-722 -25 0
722 25 0
-723 -78 0
723 78 0
-724 -28 0
724 28 0
-725 -81 0
725 81 0
-726 -84 0
726 84 0
-727 -30 0
727 30 0
-728 -6 0
728 6 0
-729 -87 0
729 87 0
-730 -32 0
730 32 0
-731 -90 0
731 90 0
-732 -93 0
732 93 0
-733 -29 0
733 29 0
-734 -96 0
734 96 0
-735 -99 0
735 99 0
-736 -18 0
736 18 0
-737 -102 0
737 102 0
-738 -38 0
738 38 0
-739 -1 0
739 1 0
-740 -105 0
740 105 0
-741 -108 0
741 108 0
-742 -41 0
742 41 0
-743 -111 0
743 111 0
-744 -33 0
744 33 0
-745 -2 0
745 2 0
-746 -114 0
746 114 0
-747 -117 0
747 117 0
-748 -42 0
748 42 0
-749 -120 0
749 120 0
-750 -20 0
750 20 0
-751 -123 0
751 123 0
-752 -43 0
752 43 0
-753 -126 0
753 126 0
-754 -129 0
754 129 0
-755 -132 0
755 132 0
-756 -135 0
756 135 0
-757 -45 0
757 45 0
-758 -138 0
758 138 0
-759 -141 0
759 141 0
-760 -144 0
760 144 0
-761 -147 0
761 147 0
-762 -27 0
762 27 0
-763 -150 0
763 150 0
-764 -153 0
764 153 0
-765 -156 0
765 156 0
-766 -159 0
766 159 0
-767 -162 0
767 162 0
-768 -165 0
768 165 0
-769 -168 0
769 168 0
-770 -171 0
770 171 0
-771 -174 0
771 174 0
-772 -47 0
772 47 0
-773 -177 0
773 177 0
-774 -24 0
774 24 0
-775 -180 0
775 180 0
-776 -40 0
776 40 0
-777 -183 0
777 183 0
-778 -186 0
778 186 0
-779 -189 0
779 189 0
-780 -192 0
780 192 0
-781 -195 0
781 195 0
-782 -34 0
782 34 0
-783 -198 0
783 198 0
-784 -39 0
784 39 0
-785 -201 0
785 201 0
-786 -204 0
786 204 0
-787 -207 0
787 207 0
-788 -210 0
788 210 0
-789 -7 0
789 7 0
-790 -213 0
790 213 0
-791 -37 0
791 37 0
-792 -35 0
792 35 0
-793 -216 0
793 216 0
-794 -219 0
794 219 0
-795 -222 0
795 222 0
-796 -49 0
796 49 0
-797 -46 0
797 46 0
-798 -225 0
798 225 0
-799 -228 0
799 228 0
-800 -231 0
800 231 0
-801 -234 0
801 234 0
-802 -237 0
802 237 0
-803 -240 0
803 240 0
-804 -50 0
804 50 0
-805 -243 0
805 243 0
-806 -36 0
806 36 0
-807 -246 0
807 246 0
-808 -249 0
808 249 0
-809 -252 0
809 252 0
-810 -255 0
810 255 0
-811 -258 0
811 258 0
-812 -261 0
812 261 0
-813 -264 0
813 264 0
-814 -26 0
814 26 0
-815 -267 0
815 267 0
-816 -270 0
816 270 0
-817 -273 0
817 273 0
-818 -276 0
818 276 0
-819 -31 0
819 31 0
-820 -279 0
820 279 0
-821 -282 0
821 282 0
-822 -285 0
822 285 0
-823 -288 0
823 288 0
-824 -291 0
824 291 0
-825 -294 0
825 294 0
-826 -297 0
826 297 0
-827 -300 0
827 300 0
-828 -303 0
828 303 0
-829 -306 0
829 306 0
-830 -309 0
830 309 0
-831 -312 0
831 312 0
-832 -315 0
832 315 0
-833 -44 0
833 44 0
-834 -318 0
834 318 0
-835 -321 0
835 321 0
-836 -324 0
836 324 0
-837 -327 0
837 327 0
-838 -330 0
838 330 0
-839 -333 0
839 333 0
-840 -336 0
840 336 0
-841 -48 0
841 48 0
-842 -339 0
842 339 0
-843 -342 0
843 342 0
-844 -345 0
844 345 0
-845 -348 0
845 348 0
-846 -351 0
846 351 0
-847 -354 0
847 354 0
-848 -357 0
848 357 0
-849 -360 0
849 360 0
-850 -362 0
850 362 0
-851 -365 0
851 365 0
-852 -368 0
852 368 0
-853 -371 0
853 371 0
-854 -374 0
854 374 0
-855 -377 0
855 377 0
-856 -380 0
856 380 0
-857 -383 0
857 383 0
-858 -386 0
858 386 0
-859 -389 0
859 389 0
-860 -392 0
860 392 0
-861 -395 0
861 395 0
-862 -398 0
862 398 0
-863 -401 0
863 401 0
-864 -404 0
864 404 0
-865 -407 0
865 407 0
-866 -410 0
866 410 0
-867 -413 0
867 413 0
-868 -416 0
868 416 0
-869 -419 0
869 419 0
-870 -422 0
870 422 0
-871 -425 0
871 425 0
-872 -428 0
872 428 0
-873 -431 0
873 431 0
-874 -434 0
874 434 0
-875 -437 0
875 437 0
-876 -440 0
876 440 0
-877 -443 0
877 443 0
-878 -446 0
878 446 0
-879 -449 0
879 449 0
-880 -452 0
880 452 0
-881 -455 0
881 455 0
-882 -457 0
882 457 0
-883 -460 0
883 460 0
-884 -463 0
884 463 0
-885 -466 0
885 466 0
-886 -469 0
886 469 0
-887 -472 0
887 472 0
-888 -474 0
888 474 0
-889 -477 0
889 477 0
-890 -480 0
890 480 0
-891 -483 0
891 483 0
-892 -486 0
892 486 0
-893 -489 0
893 489 0
-894 -492 0
894 492 0
-895 -494 0
895 494 0
-896 -497 0
896 497 0
-897 -500 0
897 500 0
-898 -503 0
898 503 0
-899 -506 0
899 506 0
-900 -509 0
900 509 0
-901 -512 0
901 512 0
-902 -515 0
902 515 0
-903 -518 0
903 518 0
-904 -521 0
904 521 0
-905 -524 0
905 524 0
-906 -527 0
906 527 0
-907 -530 0
907 530 0
-908 -533 0
908 533 0
-909 -536 0
909 536 0
-910 -539 0
910 539 0
-911 -542 0
911 542 0
-912 -545 0
912 545 0
-913 -548 0
913 548 0
-914 -551 0
914 551 0
-915 -554 0
915 554 0
-916 -557 0
916 557 0
-917 -560 0
917 560 0
-918 -563 0
918 563 0
-919 -566 0
919 566 0
-920 -569 0
920 569 0
-921 -572 0
921 572 0
-922 -575 0
922 575 0
-923 -578 0
923 578 0
-924 -581 0
924 581 0
-925 -584 0
925 584 0
-926 -587 0
926 587 0
-927 -590 0
927 590 0
-928 -593 0
928 593 0
-929 -596 0
929 596 0
-930 -599 0
930 599 0
-931 -601 0
931 601 0
-932 -604 0
932 604 0
-933 -607 0
933 607 0
-934 -610 0
934 610 0
-935 -612 0
935 612 0
-936 -615 0
936 615 0
-937 -618 0
937 618 0
-938 -621 0
938 621 0
-939 -624 0
939 624 0
-940 -627 0
940 627 0
-941 -630 0
941 630 0
-942 -633 0
942 633 0
-943 -636 0
943 636 0
-944 -639 0
944 639 0
-945 -642 0
945 642 0
-946 -645 0
946 645 0
-947 -647 0
947 647 0
-948 -649 0
948 649 0
-949 -652 0
949 652 0
-950 -655 0
950 655 0
-951 -658 0
951 658 0
-952 -661 0
952 661 0
-953 -664 0
953 664 0
-954 -667 0
954 667 0
-955 -670 0
955 670 0
-956 -673 0
956 673 0
-957 -676 0
957 676 0
-958 -679 0
958 679 0
-959 -682 0
959 682 0
-960 -685 0
960 685 0
-961 -688 0
961 688 0
-962 -691 0
962 691 0
-963 -694 0
963 694 0
695 0
